! HF 6-31G* opt

%scf MaxIter 300 end
#%maxcore 2000
#%pal nprocs 10 end

%geom scan
#dihedral
#atom number starts from zero
D 5 1 0 3 = 0, 360, 42
end
end

*xyzfile 0 1 ethane.xyz
%base "dihedral"

