! HF 6-31G Opt

*xyzfile 0 1 ../single_point_energy/hydrogen.xyz
%base "optimisation631hydrogen"