! HF 6-31G Opt

*xyzfile 0 1 ../single_point_energy/water/water.xyz
%base "optimisation631"