! DFT B3LYP Opt

*xyzfile 0 1 ../single_point_energy/water/water.xyz
%base "optimisationDFTB3"