! DFT B3LYP D3 Opt

*xyzfile 0 1 ../single_point_energy/water/water.xyz
%base "optimisationDFTB3D3"