! DFT B3LYP 6-31G Opt Freq

*xyzfile 0 1 ../../h2o.xyz
%base "frequency"
