! HF 6-31G* Opt Freq

*xyzfile 0 1 ../single_point_energy/water/water.xyz
%base "frequencyHFTWater"