! HF 6-31G* Opt Freq

*xyzfile 0 1 ../single_point_energy/hydrogen.xyz
%base "frequencyHFHydrogen"